(set-logic QF_S)
(declare-fun var_0xINPUT_73183 () String)
(assert (and (= (len var_0xINPUT_73183) 0) (= (len var_0xINPUT_73183) 0) (not (= var_0xINPUT_73183 "Example:")) (not (= var_0xINPUT_73183 "CQALcCP5TB"))))
(check-sat var_0xINPUT_73183)